p wcnf 42 90 3
1 -1 0
1 -2 0
3 7 0
3 -19 0
3 -20 0
3 -22 0
3 10 0
3 -26 0
3 -25 0
3 -23 0
3 11 0
3 -27 0
3 -28 0
3 -30 0
3 14 0
3 -34 0
3 -33 0
3 -31 0
3 15 0
3 -35 0
3 -36 0
3 -38 0
3 18 0
3 -42 0
3 -41 0
3 -39 0
3 8 0
3 -9 0
3 12 0
3 16 0
3 -3 1 0
3 -4 1 0
3 -5 2 0
3 -6 2 0
3 3 5 0
3 4 6 0
3 -11 7 -3 -3 0
3 -11 7 -5 -5 0
3 -12 8 -3 -4 0
3 -12 8 -5 -6 0
3 -13 9 -4 -3 0
3 -13 9 -6 -5 0
3 -14 10 -4 -4 0
3 -14 10 -6 -6 0
3 -15 7 -3 -3 0
3 -15 7 -5 -5 0
3 -16 8 -3 -4 0
3 -16 8 -5 -6 0
3 -17 9 -4 -3 0
3 -17 9 -6 -5 0
3 -18 10 -4 -4 0
3 -18 10 -6 -6 0
3 7 7 -3 -3 43 47 0
3 7 7 -5 -5 43 47 0
3 8 9 -3 -4 44 48 0
3 8 9 -5 -6 44 48 0
3 9 8 -4 -3 45 49 0
3 9 8 -6 -5 45 49 0
3 10 10 -4 -4 46 50 0
3 10 10 -6 -6 46 50 0
3 -8 -9 0
3 -9 -8 0
3 -12 -13 0
3 -13 -12 0
3 -16 -17 0
3 -17 -16 0
3 -43 7 0
3 -43 7 0
3 -7 -7 43 0
3 -44 7 0
3 -44 8 0
3 -7 -8 44 0
3 -45 8 0
3 -45 7 0
3 -8 -7 45 0
3 -46 8 0
3 -46 8 0
3 -8 -8 46 0
3 -47 9 0
3 -47 9 0
3 -9 -9 47 0
3 -48 9 0
3 -48 10 0
3 -9 -10 48 0
3 -49 10 0
3 -49 9 0
3 -10 -9 49 0
3 -50 10 0
3 -50 10 0
3 -10 -10 50 0